% File represents an instance of a Composite Structure problem to be solved by a CP framework
% Created on 2025-03-26 10:41:36.480
T = 58;
n = 25;
m = 40;
edges = [(2, 1),
(7, 6),
(11, 12),
(16, 17),
(21, 22),
(2, 3),
(7, 8),
(12, 13),
(17, 18),
(22, 23),
(4, 3),
(9, 8),
(14, 13),
(19, 18),
(24, 23),
(4, 5),
(9, 10),
(14, 15),
(19, 20),
(24, 25),
(1, 6),
(11, 6),
(16, 11),
(21, 16),
(2, 7),
(7, 12),
(17, 12),
(22, 17),
(3, 8),
(8, 13),
(18, 13),
(23, 18),
(4, 9),
(9, 14),
(19, 14),
(24, 19),
(5, 10),
(10, 15),
(20, 15),
(25, 20)];
counts = [|10, 22, 10, 8,
|12, 22, 12, 8,
|12, 22, 12, 4,
|12, 22, 12, 10,
|10, 22, 10, 8,
|10, 22, 10, 4,
|10, 22, 10, 8,
|10, 22, 10, 4,
|10, 22, 10, 8,
|10, 20, 10, 4,
|10, 24, 10, 8,
|10, 22, 10, 6,
|10, 20, 10, 4,
|10, 22, 10, 4,
|8, 20, 8, 4,
|10, 26, 10, 10,
|10, 22, 10, 8,
|10, 20, 10, 6,
|10, 24, 10, 8,
|8, 22, 8, 8,
|10, 26, 10, 12,
|10, 26, 10, 10,
|10, 26, 10, 6,
|10, 28, 10, 8,
|10, 24, 10, 8|];
